data;


param d:= 100;
param r:=5;
param p:=0.800000;
param M:=1000;
param U:=
         1         1       -1.148336e+00
         2         1        4.972903e-02
         3         1        1.018172e+00
         4         1       -1.512799e+00
         5         1        9.896453e-01
         6         1       -7.453103e-01
         7         1       -6.357995e-01
         8         1        8.511132e-01
         9         1        5.121044e-02
        10         1        1.869732e+00
        11         1        9.873119e-01
        12         1        4.088655e-01
        13         1        1.105009e+00
        14         1        9.271822e-01
        15         1       -1.766816e+00
        16         1        2.718294e-02
        17         1        7.670908e-01
        18         1       -8.305855e-01
        19         1       -8.181601e-01
        20         1        1.105285e+00
        21         1        5.290032e-01
        22         1       -2.288482e-01
        23         1        1.914993e-01
        24         1       -1.026812e+00
        25         1        4.055941e-01
        26         1       -6.289343e-01
        27         1        2.685972e-01
        28         1       -7.311994e-01
        29         1        1.992993e-02
        30         1        5.640091e-01
        31         1       -3.466452e-01
        32         1       -7.886267e-01
        33         1       -4.046412e-01
        34         1       -6.745649e-01
        35         1        4.996695e-01
        36         1        1.188486e+00
        37         1       -2.189278e+00
        38         1        1.080145e+00
        39         1        2.082471e+00
        40         1       -9.081563e-01
        41         1        9.024365e-01
        42         1       -4.961864e-01
        43         1       -2.173346e-01
        44         1        1.032560e+00
        45         1       -1.845855e+00
        46         1       -1.782294e+00
        47         1        1.115772e-01
        48         1        1.229883e+00
        49         1       -1.035801e+00
        50         1        1.686555e-01
        51         1       -1.954908e-01
        52         1       -2.060966e+00
        53         1        1.908556e+00
        54         1       -2.196156e+00
        55         1        2.231645e+00
        56         1       -1.709409e-01
        57         1       -9.459966e-01
        58         1       -2.106255e+00
        59         1       -2.394631e-01
        60         1       -2.306295e+00
        61         1       -1.274951e+00
        62         1        5.015116e-01
        63         1        5.165587e-02
        64         1        2.316524e-01
        65         1       -2.110093e-03
        66         1        1.019703e+00
        67         1       -5.262919e-01
        68         1        9.285123e-01
        69         1       -1.402182e+00
        70         1       -1.558015e+00
        71         1        4.063233e-01
        72         1       -1.376796e+00
        73         1        9.770584e-01
        74         1        6.371288e-01
        75         1       -2.968578e-01
        76         1        1.336770e-01
        77         1       -1.864641e-01
        78         1       -9.313291e-01
        79         1        1.890104e+00
        80         1       -6.893429e-01
        81         1       -2.096023e+00
        82         1        4.630482e-02
        83         1        2.049153e-02
        84         1       -4.153727e-02
        85         1        1.858537e-01
        86         1        1.420268e-01
        87         1       -6.000398e-01
        88         1        1.451690e+00
        89         1       -1.949732e+00
        90         1        7.821583e-01
        91         1       -1.047394e+00
        92         1       -2.143383e+00
        93         1       -1.294655e-01
        94         1        8.070639e-01
        95         1        2.314883e-01
        96         1       -4.653198e-01
        97         1       -2.410147e-01
        98         1        1.720014e-01
        99         1       -1.666310e-01
       100         1        7.132894e-01
         1         2       -7.130367e-02
         2         2       -2.781042e-01
         3         2       -1.343609e-01
         4         2        5.787778e-02
         5         2       -2.491820e-01
         6         2       -1.501801e+00
         7         2        8.745017e-01
         8         2       -2.617596e-01
         9         2       -6.461000e-01
        10         2       -1.344711e+00
        11         2       -1.079301e+00
        12         2        1.994352e+00
        13         2       -9.553720e-01
        14         2        6.239201e-01
        15         2        1.392643e+00
        16         2        9.340403e-01
        17         2       -2.417799e-01
        18         2        1.213300e+00
        19         2       -1.612052e+00
        20         2       -1.210701e+00
        21         2        2.208287e+00
        22         2       -1.271144e+00
        23         2       -1.963666e+00
        24         2       -3.742097e-01
        25         2        6.515705e-01
        26         2        8.272043e-01
        27         2       -5.793544e-01
        28         2       -6.339208e-01
        29         2        1.165359e-01
        30         2       -1.400974e+00
        31         2       -1.268047e+00
        32         2        6.206507e-01
        33         2        4.198431e-01
        34         2       -6.795403e-02
        35         2        1.716261e+00
        36         2       -8.426164e-01
        37         2        7.727721e-01
        38         2        1.136284e+00
        39         2        3.894557e-02
        40         2        7.466421e-01
        41         2        3.072570e-01
        42         2        1.743691e+00
        43         2       -1.974214e-01
        44         2        3.588804e-01
        45         2       -1.227802e+00
        46         2        1.899328e-01
        47         2       -6.687900e-01
        48         2        4.891515e-01
        49         2        6.237576e-01
        50         2        4.967287e-01
        51         2        4.541735e-01
        52         2       -3.235988e-01
        53         2       -6.661469e-01
        54         2       -3.929618e-01
        55         2        1.352598e+00
        56         2       -5.793346e-01
        57         2        7.160822e-02
        58         2       -8.121010e-01
        59         2        2.595581e+00
        60         2        5.160784e-01
        61         2       -1.241638e+00
        62         2       -7.034219e-01
        63         2        1.531912e+00
        64         2        2.829997e-01
        65         2        7.992554e-01
        66         2        2.656105e+00
        67         2       -8.355978e-01
        68         2        2.612206e-01
        69         2       -1.307388e+00
        70         2        3.648190e-01
        71         2       -6.466368e-01
        72         2        7.828674e-01
        73         2       -3.058770e-02
        74         2        3.930613e-01
        75         2       -5.017588e-01
        76         2        3.600072e-02
        77         2        8.214694e-01
        78         2        1.375010e+00
        79         2       -6.789351e-01
        80         2        2.432666e-01
        81         2        9.760963e-01
        82         2        1.275174e-01
        83         2        3.043855e-01
        84         2       -1.192567e+00
        85         2       -1.640753e-01
        86         2        4.058314e-01
        87         2        2.385997e-01
        88         2       -2.757006e-01
        89         2       -7.012120e-01
        90         2       -6.830719e-01
        91         2       -1.096258e+00
        92         2        1.270374e-01
        93         2       -2.371478e+00
        94         2       -7.930898e-01
        95         2       -8.872394e-01
        96         2       -1.402379e+00
        97         2        1.234132e+00
        98         2       -1.181959e+00
        99         2       -5.495813e-01
       100         2       -1.144553e+00
         1         3        1.166053e+00
         2         3       -1.127562e+00
         3         3        1.599756e+00
         4         3       -1.779419e+00
         5         3        1.155496e+00
         6         3       -7.888922e-01
         7         3       -9.520013e-01
         8         3        1.664409e+00
         9         3        7.955797e-02
        10         3       -8.396451e-01
        11         3       -1.679610e-01
        12         3       -1.611665e+00
        13         3       -2.161008e-01
        14         3       -2.188238e-01
        15         3       -3.128588e-01
        16         3        6.070619e-01
        17         3       -2.758966e-01
        18         3        9.305493e-01
        19         3       -1.996445e-01
        20         3        5.352405e-01
        21         3       -1.266560e-01
        22         3        3.430471e-01
        23         3        5.394391e-01
        24         3       -1.959071e-01
        25         3        6.109329e-01
        26         3        1.923623e-01
        27         3       -2.853308e+00
        28         3       -1.215416e-01
        29         3        1.615211e+00
        30         3       -1.516380e+00
        31         3       -2.697553e-01
        32         3       -1.429059e+00
        33         3       -1.206800e+00
        34         3        1.092867e-01
        35         3        2.751300e+00
        36         3        8.277144e-01
        37         3        1.295136e+00
        38         3       -1.073980e+00
        39         3       -5.473569e-02
        40         3        5.097211e-01
        41         3       -5.376375e-01
        42         3        1.431733e-01
        43         3        2.829675e-01
        44         3        1.106543e-01
        45         3       -1.526691e+00
        46         3       -4.604617e-01
        47         3        3.814768e-01
        48         3        2.828304e-01
        49         3       -4.080631e-01
        50         3       -1.403171e+00
        51         3       -1.077645e+00
        52         3       -5.967159e-01
        53         3       -1.349163e+00
        54         3       -9.302505e-01
        55         3       -1.108645e+00
        56         3       -1.490589e+00
        57         3       -7.886798e-02
        58         3        5.872484e-01
        59         3       -2.683935e-01
        60         3        4.810762e-01
        61         3       -7.311869e-01
        62         3        5.988041e-01
        63         3        1.266717e-02
        64         3        8.511510e-01
        65         3       -1.030001e+00
        66         3        3.189500e-01
        67         3       -1.352246e+00
        68         3        9.261514e-02
        69         3       -4.767902e-01
        70         3       -7.700912e-01
        71         3       -1.012071e+00
        72         3       -1.207823e-01
        73         3       -2.628657e-01
        74         3       -4.008860e-01
        75         3       -2.185654e+00
        76         3        2.855998e-01
        77         3       -1.346792e+00
        78         3       -7.641208e-02
        79         3        1.276013e+00
        80         3        8.302811e-01
        81         3       -1.452669e-01
        82         3       -4.823180e-01
        83         3       -6.492387e-01
        84         3       -1.410461e+00
        85         3       -3.077304e-01
        86         3        5.073250e-02
        87         3       -2.474420e+00
        88         3       -1.354684e-01
        89         3       -1.123063e+00
        90         3        1.655651e+00
        91         3       -6.207430e-01
        92         3       -5.702063e-02
        93         3        8.085305e-01
        94         3       -9.925223e-01
        95         3        1.886176e-02
        96         3       -2.089405e-01
        97         3       -6.415096e-01
        98         3       -5.824052e-01
        99         3        6.655889e-01
       100         3        1.434768e+00
         1         4       -7.449945e-01
         2         4       -1.720309e-01
         3         4       -1.696375e-01
         4         4        1.573044e+00
         5         4       -4.068078e-01
         6         4       -1.138431e+00
         7         4       -3.279589e-01
         8         4        1.699196e-01
         9         4       -5.270937e-01
        10         4       -1.839278e+00
        11         4        2.002851e+00
        12         4       -2.003923e+00
        13         4        5.459687e-02
        14         4        2.279997e+00
        15         4       -4.564253e-01
        16         4        1.178778e-01
        17         4       -1.144915e+00
        18         4        1.585968e+00
        19         4        8.232227e-02
        20         4        9.485823e-01
        21         4        1.786392e+00
        22         4       -1.190467e+00
        23         4       -4.807360e-01
        24         4        1.693076e+00
        25         4       -2.128832e-01
        26         4       -1.580200e+00
        27         4        3.018252e+00
        28         4        9.473176e-01
        29         4       -7.177853e-01
        30         4        6.110567e-01
        31         4        9.082122e-01
        32         4        7.141875e-01
        33         4        1.576450e-01
        34         4        2.518443e-01
        35         4        4.977065e-01
        36         4        4.997145e-01
        37         4        1.290075e+00
        38         4       -6.470566e-01
        39         4        8.403954e-01
        40         4        5.718330e-01
        41         4       -4.097241e-01
        42         4        5.024812e-01
        43         4        1.559210e+00
        44         4       -7.583461e-01
        45         4       -6.498776e-01
        46         4       -1.430030e+00
        47         4       -1.395585e+00
        48         4        2.609565e-02
        49         4       -1.409739e-01
        50         4       -7.206027e-01
        51         4       -8.452317e-01
        52         4       -1.031536e+00
        53         4        1.868168e-01
        54         4       -4.666708e-01
        55         4       -7.655916e-01
        56         4       -7.587910e-01
        57         4       -1.060999e+00
        58         4        2.284430e+00
        59         4       -4.016668e-02
        60         4       -7.504990e-01
        61         4        2.012817e-01
        62         4        1.423211e+00
        63         4       -8.952436e-01
        64         4       -2.345333e-01
        65         4        1.576648e+00
        66         4        4.046011e-01
        67         4        1.195906e+00
        68         4       -1.305515e+00
        69         4        1.735225e+00
        70         4        9.829315e-01
        71         4        1.335036e+00
        72         4       -1.642839e+00
        73         4       -1.438893e+00
        74         4        7.134307e-01
        75         4        6.411934e-01
        76         4       -5.041246e-01
        77         4       -3.087219e-01
        78         4        6.145489e-01
        79         4        4.108693e-01
        80         4       -1.490926e-01
        81         4       -6.475971e-01
        82         4        2.961820e-01
        83         4       -8.307259e-01
        84         4       -1.096825e+00
        85         4        7.809214e-01
        86         4       -1.514025e+00
        87         4       -2.262282e-01
        88         4        1.233240e-01
        89         4        6.417051e-01
        90         4       -1.377566e+00
        91         4        7.343702e-01
        92         4       -1.503316e+00
        93         4        8.678657e-01
        94         4       -6.792591e-02
        95         4        7.194285e-01
        96         4        1.554129e-01
        97         4        2.804234e-01
        98         4       -3.141001e-02
        99         4       -1.370239e+00
       100         4       -5.376274e-01
         1         5        2.526227e+00
         2         5        2.460819e-03
         3         5       -3.529259e-02
         4         5        8.286683e-01
         5         5       -1.712480e+00
         6         5        1.079123e+00
         7         5        7.294601e-01
         8         5       -7.619350e-01
         9         5       -1.762363e-01
        10         5       -1.217333e+00
        11         5        1.045662e+00
        12         5       -1.690537e+00
        13         5       -1.001722e+00
        14         5        6.793856e-02
        15         5        4.614337e-01
        16         5       -8.151256e-02
        17         5       -1.654478e+00
        18         5        1.886405e+00
        19         5       -7.245830e-01
        20         5        9.706039e-01
        21         5        5.856954e-01
        22         5       -5.448920e-01
        23         5        7.090978e-01
        24         5       -1.058710e+00
        25         5        7.310188e-01
        26         5       -1.245998e+00
        27         5        1.145001e+00
        28         5       -2.302471e-01
        29         5        1.220065e+00
        30         5       -5.013221e-01
        31         5       -3.474612e-01
        32         5        1.403755e+00
        33         5       -1.167213e+00
        34         5        7.216455e-03
        35         5       -1.240098e-01
        36         5        8.789045e-01
        37         5        1.659252e-01
        38         5       -1.194775e+00
        39         5       -6.843919e-01
        40         5       -4.765054e-01
        41         5       -1.236002e+00
        42         5       -4.130379e-01
        43         5       -5.153789e-01
        44         5        7.807265e-01
        45         5       -1.176316e+00
        46         5       -2.347300e-01
        47         5        1.063861e-01
        48         5        1.168764e+00
        49         5        7.992246e-01
        50         5        1.124880e-01
        51         5        1.278416e+00
        52         5       -2.954129e-01
        53         5        5.232918e-01
        54         5        1.034114e+00
        55         5        6.462058e-01
        56         5       -2.085257e-01
        57         5       -1.410020e+00
        58         5       -2.077944e+00
        59         5        8.153169e-01
        60         5        2.629066e-01
        61         5       -3.012151e-02
        62         5        2.390955e-01
        63         5       -6.541055e-01
        64         5        4.820999e-01
        65         5       -2.093283e+00
        66         5        6.996569e-01
        67         5        1.098609e+00
        68         5       -1.888302e-01
        69         5       -4.745703e-01
        70         5       -8.596152e-01
        71         5        2.870939e-01
        72         5        1.952789e-01
        73         5       -9.038493e-01
        74         5       -3.101386e-01
        75         5       -7.704543e-01
        76         5       -4.754663e-01
        77         5       -1.098727e+00
        78         5        2.760266e-01
        79         5        1.223345e+00
        80         5       -1.644610e+00
        81         5        9.158449e-01
        82         5       -3.526124e-01
        83         5        4.742361e-01
        84         5        8.408738e-01
        85         5       -1.907306e+00
        86         5        4.057157e-01
        87         5        1.561390e-01
        88         5       -3.162206e-01
        89         5        5.268210e-01
        90         5       -1.537293e+00
        91         5        1.504137e+00
        92         5        1.565422e+00
        93         5        2.823059e-01
        94         5        1.142320e+00
        95         5        2.246558e+00
        96         5       -1.239356e+00
        97         5       -1.276949e-01
        98         5       -6.352234e-01
        99         5       -2.700014e-01
       100         5       -1.332751e-01
;

param theta:=
    1       -6.358241e-01
    2       -7.660942e-01
    3        3.080852e-02
    4        9.540796e-01
    5        4.097789e-01
;
param X_true:=
    1        1.160401e+00
    2       -6.408287e-02
    3       -7.539130e-01
    4        2.662797e+00
    5       -1.514540e+00
    6        9.275733e-01
    7       -5.086129e-01
    8       -2.736063e-01
    9        8.276065e-02
   10       -2.477816e+00
   11        2.794962e+00
   12       -4.423872e+00
   13       -1.563328e-01
   14        1.234616e+00
   15       -2.510489e-01
   16       -5.652398e-01
   17       -2.107869e+00
   18        1.922203e+00
   19        1.437423e+00
   20        1.505200e+00
   21       -2.027838e-01
   22       -2.054338e-01
   23        1.229026e+00
   24        2.107855e+00
   25       -7.684993e-01
   26       -2.175553e+00
   27        3.488185e+00
   28        1.700561e+00
   29       -2.969274e-01
   30        1.090410e+00
   31        1.892135e+00
   32        1.204627e+00
   33       -5.504088e-01
   34        7.558367e-01
   35       -1.053553e+00
   36        8.609885e-01
   37        2.129478e+00
   38       -2.742740e+00
   39       -9.927766e-01
   40        5.016523e-01
   41       -1.566106e+00
   42       -6.758658e-01
   43        1.431175e+00
   44       -1.284711e+00
   45        1.076193e+00
   46       -6.757294e-01
   47       -8.225159e-01
   48       -8.150746e-01
   49        4.921210e-01
   50       -1.137604e+00
   51       -5.396995e-01
   52        4.462494e-01
   53       -2.893868e-01
   54        1.633690e+00
   55       -3.102851e+00
   56       -1.248391e-01
   57       -9.983659e-01
   58        3.314124e+00
   59       -1.551134e+00
   60        3.523820e-01
   61        1.774304e+00
   62        1.632370e+00
   63       -2.331723e+00
   64       -3.189711e-01
   65        8.198676e-02
   66       -1.963033e+00
   67        2.515999e+00
   68       -2.274731e+00
   69        3.278791e+00
   70        1.311896e+00
   71        1.547237e+00
   72       -1.325461e+00
   73       -2.582645e+00
   74       -1.800783e-01
   75        9.080848e-01
   76       -7.712278e-01
   77       -1.313480e+00
   78        3.813092e-02
   79        2.433817e-01
   80       -7.022055e-01
   81        4.171730e-01
   82        3.409108e-03
   83       -8.582605e-01
   84        2.643161e-01
   85       -3.281622e-02
   86       -1.609161e+00
   87        1.423569e-01
   88       -6.818586e-01
   89        2.373109e+00
   90       -1.788866e+00
   91        2.913995e+00
   92        5.343834e-01
   93        2.825889e+00
   94        5.627707e-01
   95        2.182598e+00
   96        9.584715e-01
   97       -6.515484e-01
   98        6.477423e-01
   99       -1.013277e+00
  100       -2.704688e-01
;
param X:=
    1        7.200813e-01
    2       -5.961366e-01
    3       -7.539130e-01
    4       -2.175807e+00
    5       -1.249130e+00
    6        4.128572e-01
    7       -2.361347e+00
    8       -4.548612e-01
    9       -3.454385e-01
   10       -2.477816e+00
   11       -7.908073e-01
   12        1.040894e+00
   13        6.545667e-01
   14       -1.520119e-01
   15        2.139232e-01
   16       -5.652398e-01
   17        8.520660e-01
   18       -1.602819e+00
   19       -8.487661e-01
   20        3.045315e-01
   21       -2.027838e-01
   22        3.915723e-01
   23       -6.155637e-01
   24        2.107855e+00
   25        2.391665e+00
   26        5.212542e-01
   27       -1.121982e+00
   28       -2.045578e+00
   29       -5.282313e-01
   30       -4.417966e-01
   31        2.115042e-01
   32        1.902347e+00
   33       -3.419759e-01
   34        7.558367e-01
   35       -1.940120e+00
   36        2.497734e+00
   37       -1.706503e+00
   38       -2.742740e+00
   39       -9.927766e-01
   40        4.818575e-02
   41        8.794523e-01
   42       -6.649253e-01
   43       -4.382673e-01
   44        5.129558e-01
   45       -3.650335e-01
   46       -1.317875e+00
   47       -8.225159e-01
   48       -8.885888e-02
   49       -1.055874e+00
   50       -1.458333e+00
   51        1.737229e+00
   52       -6.353791e-03
   53        1.918748e-01
   54       -1.116382e+00
   55        3.126084e-01
   56       -1.112490e+00
   57       -9.983659e-01
   58       -7.062045e-01
   59       -6.663646e-01
   60       -1.328789e+00
   61        1.774304e+00
   62       -1.204525e-01
   63       -3.824772e-01
   64        3.070619e-02
   65        8.198676e-02
   66       -3.379865e-01
   67       -7.651709e-01
   68       -3.858771e-01
   69       -5.082302e-01
   70       -1.724581e+00
   71        9.882622e-01
   72       -1.325461e+00
   73        2.090464e+00
   74       -4.603583e-01
   75        1.134284e+00
   76        3.609109e-01
   77        7.293542e-01
   78       -5.448053e-01
   79        2.433817e-01
   80        5.616134e-01
   81       -5.890163e-02
   82       -2.610079e-01
   83       -8.582605e-01
   84        2.643161e-01
   85       -3.281622e-02
   86        1.371738e+00
   87       -2.987363e-01
   88        1.888291e+00
   89       -6.945265e-01
   90       -1.788866e+00
   91       -4.161750e-01
   92        5.063128e-01
   93        2.825889e+00
   94       -1.751803e-01
   95        1.665915e+00
   96        1.454461e-01
   97       -6.515484e-01
   98       -5.740965e-01
   99       -1.221122e+00
  100       -6.477925e-01
;
param outliervec:=
    1    1
    2    1
    3    0
    4    1
    5    1
    6    1
    7    1
    8    1
    9    1
   10    0
   11    1
   12    1
   13    1
   14    1
   15    1
   16    0
   17    1
   18    1
   19    1
   20    1
   21    0
   22    1
   23    1
   24    0
   25    1
   26    1
   27    1
   28    1
   29    1
   30    1
   31    1
   32    1
   33    1
   34    0
   35    1
   36    1
   37    1
   38    0
   39    0
   40    1
   41    1
   42    1
   43    1
   44    1
   45    1
   46    1
   47    0
   48    1
   49    1
   50    1
   51    1
   52    1
   53    1
   54    1
   55    1
   56    1
   57    0
   58    1
   59    1
   60    1
   61    0
   62    1
   63    1
   64    1
   65    0
   66    1
   67    1
   68    1
   69    1
   70    1
   71    1
   72    0
   73    1
   74    1
   75    1
   76    1
   77    1
   78    1
   79    0
   80    1
   81    1
   82    1
   83    0
   84    0
   85    0
   86    1
   87    1
   88    1
   89    1
   90    0
   91    1
   92    1
   93    0
   94    1
   95    1
   96    1
   97    0
   98    1
   99    1
  100    1
;